Version identifier: 12.10.0.0 | 2019-11-26 | 843d4de
CPXPARAM_WorkMem                                 28672
Tried aggregator 2 times.
Aggregator did 45 substitutions.
Reduced MIP has 153 rows, 180 columns, and 705 nonzeros.
Reduced MIP has 180 binaries, 0 generals, 0 SOSs, and 0 indicators.
Presolve time = 0,00 sec. (0,68 ticks)
Found incumbent of value 735,000000 after 0,00 sec. (1,10 ticks)
Probing time = 0,00 sec. (0,25 ticks)
Tried aggregator 1 time.
Detecting symmetries...
MIP Presolve eliminated 30 rows and 0 columns.
MIP Presolve added 60 rows and 0 columns.
Reduced MIP has 183 rows, 180 columns, and 735 nonzeros.
Reduced MIP has 180 binaries, 0 generals, 0 SOSs, and 0 indicators.
Presolve time = 0,00 sec. (0,90 ticks)
Probing time = 0,00 sec. (0,24 ticks)
Clique table members: 495.
MIP emphasis: balance optimality and feasibility.
MIP search method: dynamic search.
Parallel mode: deterministic, using up to 16 threads.
Root relaxation solution time = 0,00 sec. (0,60 ticks)

        Nodes                                         Cuts/
   Node  Left     Objective  IInf  Best Integer    Best Bound    ItCnt     Gap

*     0+    0                          735,0000        0,0000           100,00%
*     0+    0                          564,0000        0,0000           100,00%
*     0+    0                          542,0000        0,0000           100,00%
      0     0      245,0000   153      542,0000      245,0000       63   54,80%
      0     0      247,1908   153      542,0000     Cuts: 150      130   54,39%
      0     0      252,1739   153      542,0000     Cuts: 147      185   53,47%
*     0+    0                          521,0000      252,1739            51,60%
      0     0      255,1967   153      521,0000     Cuts: 145      235   51,02%
      0     0      256,9786   153      521,0000     Cuts: 125      285   50,68%
      0     0      258,4859   153      521,0000     Cuts: 115      343   50,39%
      0     0      290,1892   153      521,0000     Cuts: 145      493   44,30%
      0     0      292,1057   153      521,0000     Cuts: 116      531   43,93%
      0     0      292,6698   153      521,0000      Cuts: 53      563   43,83%
      0     0      293,3585   153      521,0000  ZeroHalf: 11      602   43,69%
      0     0      293,6055   153      521,0000      Cuts: 25      630   43,65%
*     0+    0                          510,0000      293,6055            42,43%
      0     0      294,8254   153      510,0000      Cuts: 43      676   42,19%
      0     0      295,4675   153      510,0000      Cuts: 39      702   42,07%
      0     0      297,1834   153      510,0000       Cuts: 9      738   41,73%
      0     0      297,4644   153      510,0000      Cuts: 37      761   41,67%
      0     0      298,0370   153      510,0000      Cuts: 37      787   41,56%
*     0+    0                          471,0000      298,0370            36,72%
      0     0      298,6978   153      471,0000      Cuts: 86      833   36,58%
      0     0      299,2519   153      471,0000      Cuts: 43      861   36,46%
      0     0      299,5432   153      471,0000      Cuts: 89      904   36,40%
      0     0      299,9564   153      471,0000      Cuts: 50      948   36,31%
      0     0      300,2562   153      471,0000      Cuts: 31      971   36,25%
      0     0      300,6761   153      471,0000       Cuts: 8     1005   36,16%
      0     0      301,8117   153      471,0000      Cuts: 77     1050   35,92%
      0     0      302,3739   153      471,0000      Cuts: 58     1085   35,80%
      0     0      302,7634   153      471,0000      Cuts: 68     1112   35,72%
      0     0      303,3182   153      471,0000      Cuts: 16     1146   35,60%
      0     0      303,6151   153      471,0000  ZeroHalf: 13     1170   35,54%
      0     0      303,8656   153      471,0000      Cuts: 32     1206   35,49%
      0     0      304,1340   153      471,0000      Cuts: 90     1253   35,43%
      0     0      304,3419   153      471,0000      Cuts: 22     1284   35,38%
      0     0      304,4457   153      471,0000      Cuts: 19     1315   35,36%
      0     0      304,7443   153      471,0000      Cuts: 30     1366   34,22%
      0     0      311,7592   153      471,0000      Cuts: 48     1463   33,81%
      0     0      313,9613   153      471,0000      Cuts: 93     1520   33,34%
      0     0      315,7618   153      471,0000      Cuts: 32     1592   32,96%
      0     0      316,2911   153      471,0000      Cuts: 91     1668   32,85%
      0     0      316,4770   153      471,0000      Cuts: 31     1703   32,81%
      0     0      316,7371   153      471,0000      Cuts: 43     1758   32,75%
      0     0      316,9144   153      471,0000      Cuts: 17     1784   32,71%
      0     0      317,0057   153      471,0000      Cuts: 11     1806   32,70%
      0     0      317,1209   153      471,0000      Cuts: 15     1841   32,67%
      0     2      317,1209   166      471,0000      339,1250     1841   28,00%
Elapsed time = 0,57 sec. (318,72 ticks, tree = 0,02 MB, solutions = 6)

Clique cuts applied:  74
Cover cuts applied:  135
Flow cuts applied:  9
Mixed integer rounding cuts applied:  81
Zero-half cuts applied:  34
Lift and project cuts applied:  15
Gomory fractional cuts applied:  4

Root node processing (before b&c):
  Real time             =    0,56 sec. (318,32 ticks)
Parallel b&c, 16 threads:
  Real time             =    0,16 sec. (91,92 ticks)
  Sync time (average)   =    0,06 sec.
  Wait time (average)   =    0,00 sec.
                          ------------
Total (root+branch&cut) =    0,72 sec. (410,24 ticks)
